; benchmark generated from python API
(set-info :status unknown)
(declare-fun x_epoch () Int)
(declare-fun x_plus_epoch () Int)
(declare-fun x_plus_month () Int)
(declare-fun x_plus_year () Int)
(declare-fun x_plus_day () Int)
(declare-fun x_plus_1_epoch () Int)
(assert
 (>= x_epoch (- 36584)))
(assert
 (<= x_epoch 36829))
(assert
 (>= x_epoch 7214))
(assert
 (<= x_epoch 7304))
(assert
 (>= x_plus_epoch (- 36584)))
(assert
 (<= x_plus_epoch 36829))
(assert
 (let (($x358 (= x_plus_month 11)))
 (let (($x408 (= x_plus_month 9)))
 (let (($x233 (= x_plus_month 6)))
 (let (($x354 (= x_plus_month 4)))
 (let ((?x845 (ite (or $x354 $x233 $x408 $x358) 30 31)))
 (let (($x657 (= (mod x_plus_year 400) 0)))
 (let (($x2166 (= (mod x_plus_year 4) 0)))
 (let (($x776 (or (and $x2166 (and (distinct (mod x_plus_year 100) 0) true)) $x657)))
 (let (($x3150 (= x_plus_month 2)))
 (let (($x227 (>= x_plus_day 1)))
 (let (($x1358 (<= x_plus_month 12)))
 (let (($x205 (>= x_plus_month 1)))
 (let (($x315 (<= x_plus_year 2100)))
 (let (($x126 (>= x_plus_year 1900)))
 (and $x126 $x315 $x205 $x1358 $x227 (<= x_plus_day (ite $x3150 (ite $x776 29 28) ?x845))))))))))))))))))
(assert
 (let (($x29 (or (and (= (mod 2000 4) 0) (and (distinct (mod 2000 100) 0) true)) (= (mod 2000 400) 0))))
 (let ((?x36 (ite (= 3 2) (ite $x29 31 31) (ite (= 3 1) (ite $x29 0 0) 0))))
 (let ((?x40 (ite $x29 60 59)))
 (let ((?x41 (ite (= 3 3) ?x40 ?x36)))
 (let ((?x46 (ite (= 3 4) (ite $x29 91 90) ?x41)))
 (let ((?x52 (ite (= 3 5) (ite $x29 121 120) ?x46)))
 (let ((?x58 (ite (= 3 6) (ite $x29 152 151) ?x52)))
 (let ((?x64 (ite (= 3 7) (ite $x29 182 181) ?x58)))
 (let ((?x70 (ite (= 3 8) (ite $x29 213 212) ?x64)))
 (let ((?x76 (ite (= 3 9) (ite $x29 244 243) ?x70)))
 (let ((?x82 (ite (= 3 10) (ite $x29 274 273) ?x76)))
 (let ((?x88 (ite (= 3 11) (ite $x29 305 304) ?x82)))
 (let ((?x16 (- (+ (* 365 (- 2000 1)) (div (- 2000 1) 4)) (div (- 2000 1) 100))))
 (let ((?x95 (+ (+ ?x16 (div (- 2000 1) 400)) (ite (= 3 12) (ite $x29 335 334) ?x88))))
 (let ((?x97 (+ ?x95 (- 1 1))))
 (let (($x657 (= (mod x_plus_year 400) 0)))
 (let (($x2166 (= (mod x_plus_year 4) 0)))
 (let (($x776 (or (and $x2166 (and (distinct (mod x_plus_year 100) 0) true)) $x657)))
 (let (($x618 (= 2 x_plus_month)))
 (let ((?x287 (ite $x618 (ite $x776 31 31) (ite (= 1 x_plus_month) (ite $x776 0 0) 0))))
 (let (($x146 (= 3 x_plus_month)))
 (let (($x867 (= 4 x_plus_month)))
 (let ((?x177 (ite $x867 (ite $x776 91 90) (ite $x146 (ite $x776 60 59) ?x287))))
 (let (($x226 (= 5 x_plus_month)))
 (let (($x433 (= 6 x_plus_month)))
 (let ((?x323 (ite $x433 (ite $x776 152 151) (ite $x226 (ite $x776 121 120) ?x177))))
 (let (($x490 (= 7 x_plus_month)))
 (let (($x223 (= 8 x_plus_month)))
 (let ((?x781 (ite $x223 (ite $x776 213 212) (ite $x490 (ite $x776 182 181) ?x323))))
 (let (($x300 (= 9 x_plus_month)))
 (let (($x327 (= 10 x_plus_month)))
 (let ((?x708 (ite $x327 (ite $x776 274 273) (ite $x300 (ite $x776 244 243) ?x781))))
 (let (($x340 (= 11 x_plus_month)))
 (let (($x311 (= 12 x_plus_month)))
 (let ((?x828 (ite $x311 (ite $x776 335 334) (ite $x340 (ite $x776 305 304) ?x708))))
 (let ((?x224 (+ (* 365 (- x_plus_year 1)) (div (- x_plus_year 1) 4))))
 (let ((?x349 (+ (- ?x224 (div (- x_plus_year 1) 100)) (div (- x_plus_year 1) 400))))
 (= x_plus_epoch (- (+ (+ ?x349 ?x828) (- x_plus_day 1)) ?x97))))))))))))))))))))))))))))))))))))))))
(assert
 (let (($x29 (or (and (= (mod 2000 4) 0) (and (distinct (mod 2000 100) 0) true)) (= (mod 2000 400) 0))))
 (let ((?x36 (ite (= 3 2) (ite $x29 31 31) (ite (= 3 1) (ite $x29 0 0) 0))))
 (let ((?x40 (ite $x29 60 59)))
 (let ((?x41 (ite (= 3 3) ?x40 ?x36)))
 (let ((?x46 (ite (= 3 4) (ite $x29 91 90) ?x41)))
 (let ((?x52 (ite (= 3 5) (ite $x29 121 120) ?x46)))
 (let ((?x58 (ite (= 3 6) (ite $x29 152 151) ?x52)))
 (let ((?x64 (ite (= 3 7) (ite $x29 182 181) ?x58)))
 (let ((?x70 (ite (= 3 8) (ite $x29 213 212) ?x64)))
 (let ((?x76 (ite (= 3 9) (ite $x29 244 243) ?x70)))
 (let ((?x82 (ite (= 3 10) (ite $x29 274 273) ?x76)))
 (let ((?x88 (ite (= 3 11) (ite $x29 305 304) ?x82)))
 (let ((?x16 (- (+ (* 365 (- 2000 1)) (div (- 2000 1) 4)) (div (- 2000 1) 100))))
 (let ((?x95 (+ (+ ?x16 (div (- 2000 1) 400)) (ite (= 3 12) (ite $x29 335 334) ?x88))))
 (let ((?x97 (+ ?x95 (- 1 1))))
 (let ((?x2924 (+ x_epoch ?x97)))
 (let ((?x727 (mod ?x2924 146097)))
 (let ((?x1551 (div ?x727 36524)))
 (let ((?x829 (ite (<= 4 ?x1551) 3 ?x1551)))
 (let ((?x661 (- ?x727 (* ?x829 36524))))
 (let ((?x522 (mod ?x661 1461)))
 (let ((?x268 (div ?x522 365)))
 (let ((?x530 (ite (<= 4 ?x268) 3 ?x268)))
 (let ((?x2487 (+ (+ (* (div ?x2924 146097) 400) (* ?x829 100)) (* (div ?x661 1461) 4))))
 (let ((?x2561 (+ (+ ?x2487 ?x530) 1)))
 (let (($x506 (or (and (= (mod ?x2561 4) 0) (and (distinct (mod ?x2561 100) 0) true)) (= (mod ?x2561 400) 0))))
 (let ((?x1830 (- ?x522 (* ?x530 365))))
 (let ((?x1481 (ite $x506 31 31)))
 (let (($x843 (>= ?x1830 ?x1481)))
 (let ((?x2703 (ite $x843 (+ (- ?x1830 ?x1481) 1) (+ (- ?x1830 (ite $x506 0 0)) 1))))
 (let ((?x1769 (ite $x506 60 59)))
 (let (($x696 (>= ?x1830 ?x1769)))
 (let ((?x1628 (ite $x506 91 90)))
 (let (($x110 (>= ?x1830 ?x1628)))
 (let ((?x487 (ite $x110 (+ (- ?x1830 ?x1628) 1) (ite $x696 (+ (- ?x1830 ?x1769) 1) ?x2703))))
 (let ((?x3177 (ite $x506 121 120)))
 (let (($x3167 (>= ?x1830 ?x3177)))
 (let ((?x2961 (ite $x506 152 151)))
 (let (($x2853 (>= ?x1830 ?x2961)))
 (let ((?x366 (ite $x2853 (+ (- ?x1830 ?x2961) 1) (ite $x3167 (+ (- ?x1830 ?x3177) 1) ?x487))))
 (let ((?x112 (ite $x506 182 181)))
 (let (($x2284 (>= ?x1830 ?x112)))
 (let ((?x3086 (ite $x506 213 212)))
 (let (($x795 (>= ?x1830 ?x3086)))
 (let ((?x1316 (ite $x795 (+ (- ?x1830 ?x3086) 1) (ite $x2284 (+ (- ?x1830 ?x112) 1) ?x366))))
 (let ((?x2707 (ite $x506 244 243)))
 (let (($x1828 (>= ?x1830 ?x2707)))
 (let ((?x1221 (ite $x506 274 273)))
 (let (($x1528 (>= ?x1830 ?x1221)))
 (let ((?x2530 (ite $x1528 (+ (- ?x1830 ?x1221) 1) (ite $x1828 (+ (- ?x1830 ?x2707) 1) ?x1316))))
 (let ((?x415 (ite $x506 305 304)))
 (let (($x3340 (>= ?x1830 ?x415)))
 (let ((?x629 (ite $x506 335 334)))
 (let (($x1422 (>= ?x1830 ?x629)))
 (let ((?x778 (ite $x1422 (+ (- ?x1830 ?x629) 1) (ite $x3340 (+ (- ?x1830 ?x415) 1) ?x2530))))
 (let ((?x3038 (+ (* 1 12) 0)))
 (let ((?x2157 (ite $x3167 5 (ite $x110 4 (ite $x696 3 (ite $x843 2 1))))))
 (let ((?x2411 (ite $x1828 9 (ite $x795 8 (ite $x2284 7 (ite $x2853 6 ?x2157))))))
 (let ((?x2610 (ite $x1422 12 (ite $x3340 11 (ite $x1528 10 ?x2411)))))
 (let ((?x1204 (+ ?x2610 ?x3038)))
 (let ((?x1971 (- ?x1204 1)))
 (let ((?x1993 (+ (mod ?x1971 12) 1)))
 (let ((?x3145 (ite (or (= ?x1993 4) (= ?x1993 6) (= ?x1993 9) (= ?x1993 11)) 30 31)))
 (let (($x3099 (and (= (mod (+ ?x2561 (+ 0 (div ?x1971 12))) 4) 0) (and (distinct (mod (+ ?x2561 (+ 0 (div ?x1971 12))) 100) 0) true))))
 (let (($x331 (or $x3099 (= (mod (+ ?x2561 (+ 0 (div ?x1971 12))) 400) 0))))
 (let ((?x2711 (ite (= ?x1993 2) (ite $x331 29 28) ?x3145)))
 (let (($x741 (> 1 ?x778)))
 (let ((?x376 (ite $x741 1 (ite (> ?x778 ?x2711) ?x2711 ?x778))))
 (let ((?x3294 (ite (> 1 ?x376) 1 (ite (> ?x376 ?x2711) ?x2711 ?x376))))
 (let ((?x1906 (ite (= 2 ?x1993) (ite $x331 31 31) (ite (= 1 ?x1993) (ite $x331 0 0) 0))))
 (let ((?x3233 (ite (= 4 ?x1993) (ite $x331 91 90) (ite (= 3 ?x1993) (ite $x331 60 59) ?x1906))))
 (let ((?x2852 (ite (= 6 ?x1993) (ite $x331 152 151) (ite (= 5 ?x1993) (ite $x331 121 120) ?x3233))))
 (let ((?x2751 (ite (= 8 ?x1993) (ite $x331 213 212) (ite (= 7 ?x1993) (ite $x331 182 181) ?x2852))))
 (let ((?x2098 (ite (= 10 ?x1993) (ite $x331 274 273) (ite (= 9 ?x1993) (ite $x331 244 243) ?x2751))))
 (let ((?x242 (ite (= 12 ?x1993) (ite $x331 335 334) (ite (= 11 ?x1993) (ite $x331 305 304) ?x2098))))
 (let ((?x142 (+ (* 365 (- (+ ?x2561 (+ 0 (div ?x1971 12))) 1)) (div (- (+ ?x2561 (+ 0 (div ?x1971 12))) 1) 4))))
 (let ((?x952 (+ (- ?x142 (div (- (+ ?x2561 (+ 0 (div ?x1971 12))) 1) 100)) (div (- (+ ?x2561 (+ 0 (div ?x1971 12))) 1) 400))))
 (let ((?x1668 (+ (+ (- (+ (+ ?x952 ?x242) (- ?x3294 1)) ?x97) 0) ?x97)))
 (let ((?x1202 (mod ?x1668 146097)))
 (let ((?x1802 (div ?x1202 36524)))
 (let ((?x1692 (ite (<= 4 ?x1802) 3 ?x1802)))
 (let ((?x2387 (- ?x1202 (* ?x1692 36524))))
 (let ((?x1444 (mod ?x2387 1461)))
 (let ((?x1484 (div ?x1444 365)))
 (let ((?x1186 (ite (<= 4 ?x1484) 3 ?x1484)))
 (let ((?x342 (+ (+ (* (div ?x1668 146097) 400) (* ?x1692 100)) (* (div ?x2387 1461) 4))))
 (let ((?x3321 (+ (+ ?x342 ?x1186) 1)))
 (let ((?x3007 (+ 0 (div ?x1971 12))))
 (let ((?x1377 (+ ?x2561 ?x3007)))
 (let (($x722 (= 0 0)))
 (let ((?x3284 (ite $x722 ?x1377 ?x3321)))
 (= x_plus_year ?x3284)))))))))))))))))))))))))))))))))))))))))))))))))))))))))))))))))))))))))))))))))))))))))))))
(assert
 (let (($x29 (or (and (= (mod 2000 4) 0) (and (distinct (mod 2000 100) 0) true)) (= (mod 2000 400) 0))))
 (let ((?x36 (ite (= 3 2) (ite $x29 31 31) (ite (= 3 1) (ite $x29 0 0) 0))))
 (let ((?x40 (ite $x29 60 59)))
 (let ((?x41 (ite (= 3 3) ?x40 ?x36)))
 (let ((?x46 (ite (= 3 4) (ite $x29 91 90) ?x41)))
 (let ((?x52 (ite (= 3 5) (ite $x29 121 120) ?x46)))
 (let ((?x58 (ite (= 3 6) (ite $x29 152 151) ?x52)))
 (let ((?x64 (ite (= 3 7) (ite $x29 182 181) ?x58)))
 (let ((?x70 (ite (= 3 8) (ite $x29 213 212) ?x64)))
 (let ((?x76 (ite (= 3 9) (ite $x29 244 243) ?x70)))
 (let ((?x82 (ite (= 3 10) (ite $x29 274 273) ?x76)))
 (let ((?x88 (ite (= 3 11) (ite $x29 305 304) ?x82)))
 (let ((?x16 (- (+ (* 365 (- 2000 1)) (div (- 2000 1) 4)) (div (- 2000 1) 100))))
 (let ((?x95 (+ (+ ?x16 (div (- 2000 1) 400)) (ite (= 3 12) (ite $x29 335 334) ?x88))))
 (let ((?x97 (+ ?x95 (- 1 1))))
 (let ((?x2924 (+ x_epoch ?x97)))
 (let ((?x727 (mod ?x2924 146097)))
 (let ((?x1551 (div ?x727 36524)))
 (let ((?x829 (ite (<= 4 ?x1551) 3 ?x1551)))
 (let ((?x661 (- ?x727 (* ?x829 36524))))
 (let ((?x522 (mod ?x661 1461)))
 (let ((?x268 (div ?x522 365)))
 (let ((?x530 (ite (<= 4 ?x268) 3 ?x268)))
 (let ((?x2487 (+ (+ (* (div ?x2924 146097) 400) (* ?x829 100)) (* (div ?x661 1461) 4))))
 (let ((?x2561 (+ (+ ?x2487 ?x530) 1)))
 (let (($x506 (or (and (= (mod ?x2561 4) 0) (and (distinct (mod ?x2561 100) 0) true)) (= (mod ?x2561 400) 0))))
 (let ((?x1830 (- ?x522 (* ?x530 365))))
 (let ((?x1481 (ite $x506 31 31)))
 (let (($x843 (>= ?x1830 ?x1481)))
 (let ((?x2703 (ite $x843 (+ (- ?x1830 ?x1481) 1) (+ (- ?x1830 (ite $x506 0 0)) 1))))
 (let ((?x1769 (ite $x506 60 59)))
 (let (($x696 (>= ?x1830 ?x1769)))
 (let ((?x1628 (ite $x506 91 90)))
 (let (($x110 (>= ?x1830 ?x1628)))
 (let ((?x487 (ite $x110 (+ (- ?x1830 ?x1628) 1) (ite $x696 (+ (- ?x1830 ?x1769) 1) ?x2703))))
 (let ((?x3177 (ite $x506 121 120)))
 (let (($x3167 (>= ?x1830 ?x3177)))
 (let ((?x2961 (ite $x506 152 151)))
 (let (($x2853 (>= ?x1830 ?x2961)))
 (let ((?x366 (ite $x2853 (+ (- ?x1830 ?x2961) 1) (ite $x3167 (+ (- ?x1830 ?x3177) 1) ?x487))))
 (let ((?x112 (ite $x506 182 181)))
 (let (($x2284 (>= ?x1830 ?x112)))
 (let ((?x3086 (ite $x506 213 212)))
 (let (($x795 (>= ?x1830 ?x3086)))
 (let ((?x1316 (ite $x795 (+ (- ?x1830 ?x3086) 1) (ite $x2284 (+ (- ?x1830 ?x112) 1) ?x366))))
 (let ((?x2707 (ite $x506 244 243)))
 (let (($x1828 (>= ?x1830 ?x2707)))
 (let ((?x1221 (ite $x506 274 273)))
 (let (($x1528 (>= ?x1830 ?x1221)))
 (let ((?x2530 (ite $x1528 (+ (- ?x1830 ?x1221) 1) (ite $x1828 (+ (- ?x1830 ?x2707) 1) ?x1316))))
 (let ((?x415 (ite $x506 305 304)))
 (let (($x3340 (>= ?x1830 ?x415)))
 (let ((?x629 (ite $x506 335 334)))
 (let (($x1422 (>= ?x1830 ?x629)))
 (let ((?x778 (ite $x1422 (+ (- ?x1830 ?x629) 1) (ite $x3340 (+ (- ?x1830 ?x415) 1) ?x2530))))
 (let ((?x3038 (+ (* 1 12) 0)))
 (let ((?x2157 (ite $x3167 5 (ite $x110 4 (ite $x696 3 (ite $x843 2 1))))))
 (let ((?x2411 (ite $x1828 9 (ite $x795 8 (ite $x2284 7 (ite $x2853 6 ?x2157))))))
 (let ((?x2610 (ite $x1422 12 (ite $x3340 11 (ite $x1528 10 ?x2411)))))
 (let ((?x1204 (+ ?x2610 ?x3038)))
 (let ((?x1971 (- ?x1204 1)))
 (let ((?x1993 (+ (mod ?x1971 12) 1)))
 (let ((?x3145 (ite (or (= ?x1993 4) (= ?x1993 6) (= ?x1993 9) (= ?x1993 11)) 30 31)))
 (let (($x3099 (and (= (mod (+ ?x2561 (+ 0 (div ?x1971 12))) 4) 0) (and (distinct (mod (+ ?x2561 (+ 0 (div ?x1971 12))) 100) 0) true))))
 (let (($x331 (or $x3099 (= (mod (+ ?x2561 (+ 0 (div ?x1971 12))) 400) 0))))
 (let ((?x2711 (ite (= ?x1993 2) (ite $x331 29 28) ?x3145)))
 (let (($x741 (> 1 ?x778)))
 (let ((?x376 (ite $x741 1 (ite (> ?x778 ?x2711) ?x2711 ?x778))))
 (let ((?x3294 (ite (> 1 ?x376) 1 (ite (> ?x376 ?x2711) ?x2711 ?x376))))
 (let ((?x1906 (ite (= 2 ?x1993) (ite $x331 31 31) (ite (= 1 ?x1993) (ite $x331 0 0) 0))))
 (let ((?x3233 (ite (= 4 ?x1993) (ite $x331 91 90) (ite (= 3 ?x1993) (ite $x331 60 59) ?x1906))))
 (let ((?x2852 (ite (= 6 ?x1993) (ite $x331 152 151) (ite (= 5 ?x1993) (ite $x331 121 120) ?x3233))))
 (let ((?x2751 (ite (= 8 ?x1993) (ite $x331 213 212) (ite (= 7 ?x1993) (ite $x331 182 181) ?x2852))))
 (let ((?x2098 (ite (= 10 ?x1993) (ite $x331 274 273) (ite (= 9 ?x1993) (ite $x331 244 243) ?x2751))))
 (let ((?x242 (ite (= 12 ?x1993) (ite $x331 335 334) (ite (= 11 ?x1993) (ite $x331 305 304) ?x2098))))
 (let ((?x142 (+ (* 365 (- (+ ?x2561 (+ 0 (div ?x1971 12))) 1)) (div (- (+ ?x2561 (+ 0 (div ?x1971 12))) 1) 4))))
 (let ((?x952 (+ (- ?x142 (div (- (+ ?x2561 (+ 0 (div ?x1971 12))) 1) 100)) (div (- (+ ?x2561 (+ 0 (div ?x1971 12))) 1) 400))))
 (let ((?x1668 (+ (+ (- (+ (+ ?x952 ?x242) (- ?x3294 1)) ?x97) 0) ?x97)))
 (let ((?x1202 (mod ?x1668 146097)))
 (let ((?x1802 (div ?x1202 36524)))
 (let ((?x1692 (ite (<= 4 ?x1802) 3 ?x1802)))
 (let ((?x2387 (- ?x1202 (* ?x1692 36524))))
 (let ((?x1444 (mod ?x2387 1461)))
 (let ((?x1484 (div ?x1444 365)))
 (let ((?x1186 (ite (<= 4 ?x1484) 3 ?x1484)))
 (let ((?x342 (+ (+ (* (div ?x1668 146097) 400) (* ?x1692 100)) (* (div ?x2387 1461) 4))))
 (let ((?x3321 (+ (+ ?x342 ?x1186) 1)))
 (let (($x3228 (or (and (= (mod ?x3321 4) 0) (and (distinct (mod ?x3321 100) 0) true)) (= (mod ?x3321 400) 0))))
 (let ((?x3210 (ite $x3228 31 31)))
 (let ((?x2882 (- ?x1444 (* ?x1186 365))))
 (let (($x3444 (>= ?x2882 ?x3210)))
 (let ((?x304 (ite $x3228 60 59)))
 (let (($x3447 (>= ?x2882 ?x304)))
 (let ((?x1547 (ite $x3228 91 90)))
 (let (($x3446 (>= ?x2882 ?x1547)))
 (let ((?x3456 (ite $x3228 121 120)))
 (let (($x3022 (>= ?x2882 ?x3456)))
 (let ((?x1869 (ite $x3022 5 (ite $x3446 4 (ite $x3447 3 (ite $x3444 2 1))))))
 (let ((?x3457 (ite $x3228 152 151)))
 (let (($x1702 (>= ?x2882 ?x3457)))
 (let ((?x3459 (ite $x3228 182 181)))
 (let (($x2891 (>= ?x2882 ?x3459)))
 (let ((?x723 (ite $x3228 213 212)))
 (let (($x3433 (>= ?x2882 ?x723)))
 (let ((?x3458 (ite $x3228 244 243)))
 (let (($x3436 (>= ?x2882 ?x3458)))
 (let ((?x3435 (ite $x3436 9 (ite $x3433 8 (ite $x2891 7 (ite $x1702 6 ?x1869))))))
 (let ((?x1526 (ite $x3228 274 273)))
 (let (($x3437 (>= ?x2882 ?x1526)))
 (let ((?x809 (ite $x3228 305 304)))
 (let (($x3439 (>= ?x2882 ?x809)))
 (let ((?x2775 (ite $x3228 335 334)))
 (let (($x1293 (>= ?x2882 ?x2775)))
 (let (($x722 (= 0 0)))
 (let ((?x3403 (ite $x722 ?x1993 (ite $x1293 12 (ite $x3439 11 (ite $x3437 10 ?x3435))))))
 (= x_plus_month ?x3403)))))))))))))))))))))))))))))))))))))))))))))))))))))))))))))))))))))))))))))))))))))))))))))))))))))))))))))))))))))
(assert
 (let (($x29 (or (and (= (mod 2000 4) 0) (and (distinct (mod 2000 100) 0) true)) (= (mod 2000 400) 0))))
 (let ((?x36 (ite (= 3 2) (ite $x29 31 31) (ite (= 3 1) (ite $x29 0 0) 0))))
 (let ((?x40 (ite $x29 60 59)))
 (let ((?x41 (ite (= 3 3) ?x40 ?x36)))
 (let ((?x46 (ite (= 3 4) (ite $x29 91 90) ?x41)))
 (let ((?x52 (ite (= 3 5) (ite $x29 121 120) ?x46)))
 (let ((?x58 (ite (= 3 6) (ite $x29 152 151) ?x52)))
 (let ((?x64 (ite (= 3 7) (ite $x29 182 181) ?x58)))
 (let ((?x70 (ite (= 3 8) (ite $x29 213 212) ?x64)))
 (let ((?x76 (ite (= 3 9) (ite $x29 244 243) ?x70)))
 (let ((?x82 (ite (= 3 10) (ite $x29 274 273) ?x76)))
 (let ((?x88 (ite (= 3 11) (ite $x29 305 304) ?x82)))
 (let ((?x16 (- (+ (* 365 (- 2000 1)) (div (- 2000 1) 4)) (div (- 2000 1) 100))))
 (let ((?x95 (+ (+ ?x16 (div (- 2000 1) 400)) (ite (= 3 12) (ite $x29 335 334) ?x88))))
 (let ((?x97 (+ ?x95 (- 1 1))))
 (let ((?x2924 (+ x_epoch ?x97)))
 (let ((?x727 (mod ?x2924 146097)))
 (let ((?x1551 (div ?x727 36524)))
 (let ((?x829 (ite (<= 4 ?x1551) 3 ?x1551)))
 (let ((?x661 (- ?x727 (* ?x829 36524))))
 (let ((?x522 (mod ?x661 1461)))
 (let ((?x268 (div ?x522 365)))
 (let ((?x530 (ite (<= 4 ?x268) 3 ?x268)))
 (let ((?x2487 (+ (+ (* (div ?x2924 146097) 400) (* ?x829 100)) (* (div ?x661 1461) 4))))
 (let ((?x2561 (+ (+ ?x2487 ?x530) 1)))
 (let (($x506 (or (and (= (mod ?x2561 4) 0) (and (distinct (mod ?x2561 100) 0) true)) (= (mod ?x2561 400) 0))))
 (let ((?x1830 (- ?x522 (* ?x530 365))))
 (let ((?x1481 (ite $x506 31 31)))
 (let (($x843 (>= ?x1830 ?x1481)))
 (let ((?x2703 (ite $x843 (+ (- ?x1830 ?x1481) 1) (+ (- ?x1830 (ite $x506 0 0)) 1))))
 (let ((?x1769 (ite $x506 60 59)))
 (let (($x696 (>= ?x1830 ?x1769)))
 (let ((?x1628 (ite $x506 91 90)))
 (let (($x110 (>= ?x1830 ?x1628)))
 (let ((?x487 (ite $x110 (+ (- ?x1830 ?x1628) 1) (ite $x696 (+ (- ?x1830 ?x1769) 1) ?x2703))))
 (let ((?x3177 (ite $x506 121 120)))
 (let (($x3167 (>= ?x1830 ?x3177)))
 (let ((?x2961 (ite $x506 152 151)))
 (let (($x2853 (>= ?x1830 ?x2961)))
 (let ((?x366 (ite $x2853 (+ (- ?x1830 ?x2961) 1) (ite $x3167 (+ (- ?x1830 ?x3177) 1) ?x487))))
 (let ((?x112 (ite $x506 182 181)))
 (let (($x2284 (>= ?x1830 ?x112)))
 (let ((?x3086 (ite $x506 213 212)))
 (let (($x795 (>= ?x1830 ?x3086)))
 (let ((?x1316 (ite $x795 (+ (- ?x1830 ?x3086) 1) (ite $x2284 (+ (- ?x1830 ?x112) 1) ?x366))))
 (let ((?x2707 (ite $x506 244 243)))
 (let (($x1828 (>= ?x1830 ?x2707)))
 (let ((?x1221 (ite $x506 274 273)))
 (let (($x1528 (>= ?x1830 ?x1221)))
 (let ((?x2530 (ite $x1528 (+ (- ?x1830 ?x1221) 1) (ite $x1828 (+ (- ?x1830 ?x2707) 1) ?x1316))))
 (let ((?x415 (ite $x506 305 304)))
 (let (($x3340 (>= ?x1830 ?x415)))
 (let ((?x629 (ite $x506 335 334)))
 (let (($x1422 (>= ?x1830 ?x629)))
 (let ((?x778 (ite $x1422 (+ (- ?x1830 ?x629) 1) (ite $x3340 (+ (- ?x1830 ?x415) 1) ?x2530))))
 (let ((?x3038 (+ (* 1 12) 0)))
 (let ((?x2157 (ite $x3167 5 (ite $x110 4 (ite $x696 3 (ite $x843 2 1))))))
 (let ((?x2411 (ite $x1828 9 (ite $x795 8 (ite $x2284 7 (ite $x2853 6 ?x2157))))))
 (let ((?x2610 (ite $x1422 12 (ite $x3340 11 (ite $x1528 10 ?x2411)))))
 (let ((?x1204 (+ ?x2610 ?x3038)))
 (let ((?x1971 (- ?x1204 1)))
 (let ((?x1993 (+ (mod ?x1971 12) 1)))
 (let ((?x3145 (ite (or (= ?x1993 4) (= ?x1993 6) (= ?x1993 9) (= ?x1993 11)) 30 31)))
 (let (($x3099 (and (= (mod (+ ?x2561 (+ 0 (div ?x1971 12))) 4) 0) (and (distinct (mod (+ ?x2561 (+ 0 (div ?x1971 12))) 100) 0) true))))
 (let (($x331 (or $x3099 (= (mod (+ ?x2561 (+ 0 (div ?x1971 12))) 400) 0))))
 (let ((?x2711 (ite (= ?x1993 2) (ite $x331 29 28) ?x3145)))
 (let (($x741 (> 1 ?x778)))
 (let ((?x376 (ite $x741 1 (ite (> ?x778 ?x2711) ?x2711 ?x778))))
 (let ((?x3294 (ite (> 1 ?x376) 1 (ite (> ?x376 ?x2711) ?x2711 ?x376))))
 (let ((?x1906 (ite (= 2 ?x1993) (ite $x331 31 31) (ite (= 1 ?x1993) (ite $x331 0 0) 0))))
 (let ((?x3233 (ite (= 4 ?x1993) (ite $x331 91 90) (ite (= 3 ?x1993) (ite $x331 60 59) ?x1906))))
 (let ((?x2852 (ite (= 6 ?x1993) (ite $x331 152 151) (ite (= 5 ?x1993) (ite $x331 121 120) ?x3233))))
 (let ((?x2751 (ite (= 8 ?x1993) (ite $x331 213 212) (ite (= 7 ?x1993) (ite $x331 182 181) ?x2852))))
 (let ((?x2098 (ite (= 10 ?x1993) (ite $x331 274 273) (ite (= 9 ?x1993) (ite $x331 244 243) ?x2751))))
 (let ((?x242 (ite (= 12 ?x1993) (ite $x331 335 334) (ite (= 11 ?x1993) (ite $x331 305 304) ?x2098))))
 (let ((?x142 (+ (* 365 (- (+ ?x2561 (+ 0 (div ?x1971 12))) 1)) (div (- (+ ?x2561 (+ 0 (div ?x1971 12))) 1) 4))))
 (let ((?x952 (+ (- ?x142 (div (- (+ ?x2561 (+ 0 (div ?x1971 12))) 1) 100)) (div (- (+ ?x2561 (+ 0 (div ?x1971 12))) 1) 400))))
 (let ((?x1668 (+ (+ (- (+ (+ ?x952 ?x242) (- ?x3294 1)) ?x97) 0) ?x97)))
 (let ((?x1202 (mod ?x1668 146097)))
 (let ((?x1802 (div ?x1202 36524)))
 (let ((?x1692 (ite (<= 4 ?x1802) 3 ?x1802)))
 (let ((?x2387 (- ?x1202 (* ?x1692 36524))))
 (let ((?x1444 (mod ?x2387 1461)))
 (let ((?x1484 (div ?x1444 365)))
 (let ((?x1186 (ite (<= 4 ?x1484) 3 ?x1484)))
 (let ((?x342 (+ (+ (* (div ?x1668 146097) 400) (* ?x1692 100)) (* (div ?x2387 1461) 4))))
 (let ((?x3321 (+ (+ ?x342 ?x1186) 1)))
 (let (($x3228 (or (and (= (mod ?x3321 4) 0) (and (distinct (mod ?x3321 100) 0) true)) (= (mod ?x3321 400) 0))))
 (let ((?x2882 (- ?x1444 (* ?x1186 365))))
 (let ((?x3210 (ite $x3228 31 31)))
 (let (($x3444 (>= ?x2882 ?x3210)))
 (let ((?x2089 (ite $x3444 (+ (- ?x2882 ?x3210) 1) (+ (- ?x2882 (ite $x3228 0 0)) 1))))
 (let ((?x304 (ite $x3228 60 59)))
 (let (($x3447 (>= ?x2882 ?x304)))
 (let ((?x1547 (ite $x3228 91 90)))
 (let (($x3446 (>= ?x2882 ?x1547)))
 (let ((?x2817 (ite $x3446 (+ (- ?x2882 ?x1547) 1) (ite $x3447 (+ (- ?x2882 ?x304) 1) ?x2089))))
 (let ((?x3456 (ite $x3228 121 120)))
 (let (($x3022 (>= ?x2882 ?x3456)))
 (let ((?x3457 (ite $x3228 152 151)))
 (let (($x1702 (>= ?x2882 ?x3457)))
 (let ((?x3222 (ite $x1702 (+ (- ?x2882 ?x3457) 1) (ite $x3022 (+ (- ?x2882 ?x3456) 1) ?x2817))))
 (let ((?x3459 (ite $x3228 182 181)))
 (let (($x2891 (>= ?x2882 ?x3459)))
 (let ((?x723 (ite $x3228 213 212)))
 (let (($x3433 (>= ?x2882 ?x723)))
 (let ((?x1059 (ite $x3433 (+ (- ?x2882 ?x723) 1) (ite $x2891 (+ (- ?x2882 ?x3459) 1) ?x3222))))
 (let ((?x3458 (ite $x3228 244 243)))
 (let (($x3436 (>= ?x2882 ?x3458)))
 (let ((?x1526 (ite $x3228 274 273)))
 (let (($x3437 (>= ?x2882 ?x1526)))
 (let ((?x3413 (ite $x3437 (+ (- ?x2882 ?x1526) 1) (ite $x3436 (+ (- ?x2882 ?x3458) 1) ?x1059))))
 (let ((?x809 (ite $x3228 305 304)))
 (let (($x3439 (>= ?x2882 ?x809)))
 (let ((?x2775 (ite $x3228 335 334)))
 (let (($x1293 (>= ?x2882 ?x2775)))
 (let ((?x2297 (ite $x1293 (+ (- ?x2882 ?x2775) 1) (ite $x3439 (+ (- ?x2882 ?x809) 1) ?x3413))))
 (let (($x722 (= 0 0)))
 (let ((?x2076 (ite $x722 ?x3294 ?x2297)))
 (= x_plus_day ?x2076)))))))))))))))))))))))))))))))))))))))))))))))))))))))))))))))))))))))))))))))))))))))))))))))))))))))))))))))))))))))))
(assert
 (>= x_plus_1_epoch (- 36584)))
(assert
 (<= x_plus_1_epoch 36829))
(assert
 (= x_plus_1_epoch (+ x_epoch 366)))
(assert
 (not (= x_plus_epoch x_plus_1_epoch)))
(check-sat)
